c   #vars: 76   #clauses: 344   #literals: 970
c 
p cnf 76 344
7 37 38 -72 0
32 33 69 70 0
-1 -2 0
-3 -4 0
-33 48 49 63 0
-5 -6 0
-8 -9 0
-10 -11 0
-12 -13 0
-14 -15 0
-16 -17 0
-18 -19 0
-20 -21 0
-22 -23 0
-24 -25 0
-8 36 54 55 0
-27 -28 0
20 21 -33 63 0
-30 -31 0
-32 -33 0
-34 -35 0
-37 -38 0
-39 -40 0
-41 -42 0
-43 -44 0
-45 -46 0
29 61 62 -76 0
-48 -49 0
-50 -51 0
18 19 53 -69 0
-18 53 56 57 0
1 2 75 76 0
24 25 -37 58 0
-54 -55 0
-56 -57 0
10 11 -30 64 0
-59 -60 0
-61 -62 0
22 23 65 66 0
53 56 57 -69 0
39 40 71 72 0
-65 -66 0
-67 -68 0
-69 -70 0
-71 -72 0
-73 -74 0
18 19 71 72 0
26 43 44 -50 0
20 21 32 33 0
-75 -76 0
7 -35 71 72 0
7 54 55 -72 0
-20 52 71 72 0
-9 32 33 63 0
-24 52 71 72 0
-1 -32 0
-2 -33 0
-1 -34 0
-2 -35 0
-1 -37 0
-2 -38 0
29 -62 67 68 0
-2 -47 0
20 21 -49 63 0
8 9 54 55 0
-1 -75 0
-2 -76 0
-3 -32 0
-4 -33 0
-3 -39 0
-4 -40 0
-5 30 31 64 0
-3 -45 0
-4 -46 0
-5 10 11 64 0
-4 -58 0
8 9 -21 63 0
26 50 51 -71 0
26 -43 50 51 0
16 17 56 57 0
26 -43 71 72 0
20 21 -24 52 0
-6 -36 0
-6 -64 0
30 31 67 68 0
-5 -65 0
-6 -66 0
8 9 59 60 0
-5 -73 0
-6 -74 0
1 2 47 -59 0
-7 -34 0
-7 -37 0
3 4 39 40 0
26 -50 71 72 0
-24 37 38 58 0
-7 -54 0
29 -68 75 76 0
-7 -71 0
29 -62 75 76 0
39 40 67 68 0
7 34 35 -72 0
-9 -36 0
10 11 69 70 0
-8 -43 0
-9 -44 0
32 33 -49 63 0
-8 -54 0
-9 -55 0
10 11 48 49 0
-8 -59 0
-9 -60 0
-8 -63 0
-8 -71 0
-9 -72 0
16 17 54 55 0
-10 -30 0
-11 -31 0
16 17 45 46 0
-10 -39 0
-11 -40 0
24 25 52 -71 0
27 28 50 51 0
-10 -48 0
-11 -49 0
50 51 65 66 0
-11 -64 0
50 51 73 74 0
-10 -69 0
-11 -70 0
45 46 59 60 0
-12 -41 0
-13 -42 0
-21 48 49 63 0
-12 -48 0
-13 -49 0
24 25 59 60 0
-12 -56 0
-13 -57 0
10 11 39 40 0
-12 -59 0
-13 -60 0
37 38 75 76 0
-14 -32 0
-15 -33 0
41 42 71 72 0
29 67 68 -76 0
-15 -47 0
-14 -54 0
-15 -55 0
14 15 56 57 0
-14 -56 0
-15 -57 0
-16 -37 0
-17 -38 0
-16 -45 0
-17 -46 0
27 28 61 62 0
-16 -54 0
-17 -55 0
-16 -56 0
-17 -57 0
7 34 35 -55 0
29 61 62 -68 0
20 21 73 74 0
-16 -75 0
-17 -76 0
-10 30 31 64 0
-18 -41 0
-19 -42 0
41 42 61 62 0
-3 24 25 58 0
-19 -53 0
7 -55 71 72 0
-18 -65 0
-19 -66 0
-5 8 9 36 0
-18 -67 0
-19 -68 0
18 19 67 68 0
-18 -71 0
-19 -72 0
10 11 30 31 0
-20 -32 0
-21 -33 0
30 31 61 62 0
-20 -41 0
-21 -42 0
18 19 41 42 0
18 19 53 -56 0
-21 -52 0
27 28 30 31 0
-20 -59 0
-21 -60 0
1 2 34 35 0
-20 -63 0
26 43 44 -71 0
-20 -73 0
-21 -74 0
16 17 75 76 0
-22 -43 0
-23 -44 0
-22 -45 0
-23 -46 0
-22 -65 0
-23 -66 0
37 38 73 74 0
-22 -67 0
-23 -68 0
-24 -45 0
-25 -46 0
20 21 59 60 0
53 -56 69 70 0
-25 -52 0
14 15 32 33 0
5 6 -30 64 0
-25 -58 0
1 2 -14 47 0
-24 -59 0
-25 -60 0
-24 -65 0
-25 -66 0
12 13 56 57 0
-5 36 54 55 0
-26 -44 0
5 6 36 -54 0
-26 -51 0
5 6 -8 36 0
-26 -72 0
5 6 65 66 0
-27 -30 0
-28 -31 0
8 9 71 72 0
-27 -50 0
-28 -51 0
8 9 36 -54 0
-27 -61 0
-28 -62 0
22 23 67 68 0
-27 -67 0
-28 -68 0
-29 -61 0
-9 20 21 63 0
24 25 45 46 0
-29 -67 0
8 9 -49 63 0
27 28 67 68 0
18 19 65 66 0
14 15 47 -59 0
22 23 45 46 0
-29 -75 0
8 9 -33 63 0
16 17 37 38 0
-30 -56 0
-31 -57 0
-30 -61 0
-31 -62 0
39 40 75 76 0
-31 -64 0
1 2 37 38 0
-30 -67 0
-31 -68 0
-14 47 59 60 0
-32 -63 0
5 6 73 74 0
-32 -69 0
-33 -70 0
7 34 35 -38 0
7 -38 54 55 0
-21 32 33 63 0
-34 -65 0
-35 -66 0
-3 37 38 58 0
-34 -69 0
-35 -70 0
-1 47 59 60 0
7 -35 37 38 0
-36 -55 0
22 23 43 44 0
5 6 -10 64 0
-38 -58 0
-37 -73 0
-38 -74 0
20 21 41 42 0
-37 -75 0
-38 -76 0
41 42 75 76 0
-39 -67 0
-40 -68 0
24 25 65 66 0
-39 -71 0
-40 -72 0
1 2 32 33 0
-39 -75 0
-40 -76 0
48 49 65 66 0
7 -35 54 55 0
-20 24 25 52 0
20 21 52 -71 0
-41 -61 0
-42 -62 0
8 9 43 44 0
-41 -71 0
-42 -72 0
43 44 61 62 0
-41 -75 0
-42 -76 0
43 44 56 57 0
-43 -56 0
-44 -57 0
7 37 38 -55 0
-43 -61 0
-44 -62 0
30 31 56 57 0
-43 -71 0
-44 -72 0
14 15 54 55 0
-45 -59 0
-46 -60 0
12 13 48 49 0
-9 48 49 63 0
-47 -60 0
3 4 45 46 0
12 13 59 60 0
-1 14 15 47 0
-48 -63 0
12 13 41 42 0
-48 -65 0
-49 -66 0
34 35 69 70 0
-50 -65 0
-51 -66 0
7 -38 71 72 0
-50 -73 0
-51 -74 0
34 35 65 66 0
-18 53 69 70 0
-52 -72 0
3 4 32 33 0
3 4 -37 58 0
-53 -57 0
43 44 71 72 0
3 4 -24 58 0
-53 -70 0
